NAME: p04_7090_tsplib0_NORMALIZED
BEST_KNOWN: 0
COMMENT: 0
DIMENSION: 151
CAPACITY: 100
EDGE_WEIGHT_FORMAT: FUNCTION
EDGE_WEIGHT_TYPE: EXACT_2D
NODE_COORD_SECTION
1 0 0
2 2 17
3 14 14
4 17 29
5 -15 -9
6 5 -5
7 -14 12
8 -18 28
9 -4 27
10 17 -2
11 16 -14
12 7 6
13 -4 -3
14 -30 -10
15 -23 7
16 1 -19
17 17 6
18 -8 -12
19 -18 -2
20 -22 -22
21 22 23
22 27 7
23 7 22
24 -19 22
25 -27 17
26 -28 3
27 -8 33
28 -5 13
29 8 32
30 23 13
31 23 -8
32 2 34
33 3 11
34 11 -25
35 26 -2
36 27 28
37 28 34
38 -3 -13
39 10 0
40 24 -20
41 -30 -29
42 -25 -18
43 -14 -25
44 -30 29
45 -5 -20
46 4 -25
47 -3 4
48 -10 -3
49 -10 20
50 13 -7
51 21 2
52 6 14
53 0 -18
54 20 10
55 20 -15
56 -20 -5
57 -10 -5
58 -15 15
59 -25 8
60 20 25
61 -5 25
62 -15 30
63 15 0
64 -5 -10
65 -20 -25
66 -5 -30
67 -25 -15
68 -30 -5
69 -15 5
70 -20 25
71 10 30
72 10 -15
73 10 -25
74 20 -30
75 30 0
76 30 -15
77 10 -5
78 0 5
79 6 2
80 29 7
81 5 25
82 -4 17
83 0 34
84 18 17
85 30 20
86 28 30
87 -33 25
88 -15 -15
89 -30 -30
90 25 -23
91 5 -10
92 7 -28
93 -11 -23
94 -12 -32
95 -24 -21
96 -29 3
97 -33 13
98 -27 21
99 -22 17
100 -29 33
101 12 12
102 14 23
103 -8 8
104 2 -4
105 22 -6
106 28 -12
107 18 -23
108 -3 -23
109 1 -9
110 -14 -11
111 -18 -1
112 -23 -11
113 -11 23
114 -8 34
115 -20 42
116 27 42
117 14 38
118 32 -30
119 21 4
120 2 12
121 2 21
122 22 33
123 12 -19
124 9 -18
125 11 -22
126 14 -24
127 14 7
128 18 8
129 26 17
130 22 13
131 21 2
132 20 19
133 -20 12
134 -21 2
135 -24 -4
136 -19 -13
137 -31 -17
138 -7 -17
139 -9 17
140 -9 0
141 -4 32
142 -20 -16
143 -13 -13
144 -17 -11
145 -9 -8
146 -10 -11
147 -13 -8
148 -10 -14
149 -16 -14
150 -15 -9
151 -17 -17
DEMAND_SECTION
1 0
2 87
3 77
4 74
5 81
6 88
7 87
8 79
9 72
10 74
11 70
12 86
13 77
14 79
15 80
16 84
17 75
18 71
19 80
20 87
21 80
22 72
23 82
24 83
25 81
26 85
27 84
28 70
29 85
30 73
31 72
32 87
33 86
34 86
35 74
36 86
37 79
38 85
39 79
40 79
41 86
42 73
43 71
44 82
45 83
46 87
47 75
48 79
49 78
50 86
51 82
52 83
53 83
54 71
55 88
56 84
57 84
58 76
59 84
60 78
61 76
62 87
63 75
64 76
65 75
66 77
67 79
68 87
69 71
70 89
71 87
72 88
73 87
74 86
75 89
76 71
77 76
78 81
79 84
80 81
81 86
82 83
83 75
84 83
85 82
86 89
87 85
88 89
89 86
90 87
91 72
92 86
93 81
94 73
95 88
96 83
97 85
98 85
99 78
100 85
101 72
102 83
103 85
104 85
105 89
106 78
107 74
108 71
109 81
110 76
111 88
112 88
113 83
114 70
115 76
116 83
117 77
118 77
119 86
120 85
121 88
122 76
123 79
124 71
125 77
126 83
127 80
128 89
129 79
130 83
131 79
132 82
133 82
134 85
135 84
136 85
137 81
138 81
139 76
140 76
141 88
142 81
143 82
144 81
145 73
146 83
147 83
148 89
149 74
150 81
151 77
DEPOT_SECTION
1
-1
EOF